\ENCODING=ISO-8859-1
\Problem name: d:\code-git\memesa-tools\CoPE_FBA_2\data\toy_model\models\h-format\toy_model_cplex

Maximize
 objMaxJ18: R18
Subject To
 A#0:   R01 - R03 - R02  = 0
 ADP#1: R16 - R08 - R10 + R17  = 0
 ATP#2: - R16 + R08 + R10 - R17  = 0
 B#3:   R02 - R05 + R04  = 0
 C#4:   R03 - R04  = 0
 D#5:   R05 - R06 - R09  = 0
 _E#6:  - R07 + R06  = 0
 F#7:   R07 - R08  = 0
 G#8:   R09 - R10  = 0
 H#9:   R08 - R11 + R10  = 0
 I#10:  R11 - R15 - R12  = 0
 J#11:  - R16 + R12 - R13  = 0
 K#12:  - R14 + R13  = 0
 L#13:  R14 + R15 - R17  = 0
 M#14:  R16 - R18  = 0
 N#15:  - R18 + R17  = 0
Bounds
 0 <= R01 <= 2
      R03 Free
      R04 Free
      R14 Free
      R13 Free
End
